c Random 6-CNF over 20 variables and 120 clauses
c Generated with `cnfgen`
c (C) 2012-2016 Massimo Lauria <lauria.massimo@gmail.com>
c https://massimolauria.github.io/cnfgen
c
c COMMAND LINE: cnfgen --output tmp-6-20-120.dimacs --output-format dimacs randkcnf 6 20 120
c
c sdimacs generated by gen-sdimacs
c
p cnf 20 120
r 0.5 1 2 3 4 5 6 7 8 9 10 0
e  11 12 13 14 15 16 17 18 19 20 0
-2 4 5 6 -13 17 0
-1 -2 -4 15 -17 18 0
-2 4 -10 14 -15 17 0
-2 4 10 -14 -16 20 0
-1 4 -5 -6 16 -19 0
5 8 10 -12 14 -16 0
4 5 -7 -8 11 -15 0
-4 5 6 7 -18 20 0
9 -10 11 -13 16 -18 0
-5 6 -9 13 18 -20 0
-1 -4 6 8 -19 -20 0
1 -2 5 10 -16 18 0
9 -11 -13 17 -18 19 0
2 -4 5 9 13 15 0
1 15 -16 -18 -19 -20 0
-6 7 11 15 17 19 0
1 2 -3 -13 -15 17 0
-2 -5 8 -10 17 18 0
-3 9 12 13 -16 20 0
-1 8 -9 -10 -16 -20 0
-1 3 9 -15 17 -19 0
-2 -9 -10 13 -15 -19 0
-2 -3 -4 9 10 12 0
-2 -8 10 14 16 -18 0
-1 7 10 13 -17 18 0
-1 -2 3 13 -17 -20 0
-10 -14 -15 16 17 18 0
-5 10 12 15 18 -19 0
6 -9 -14 15 -16 -19 0
-3 -5 7 -12 -16 -17 0
3 -9 11 -15 -16 -17 0
-1 -5 7 14 -15 19 0
-4 5 -7 8 -14 18 0
5 -8 -10 -11 12 13 0
-5 8 -9 14 16 19 0
1 4 -5 -7 8 10 0
-7 8 -15 17 -19 20 0
-1 -7 -9 -12 19 -20 0
4 6 13 -14 16 20 0
2 -3 -4 8 10 16 0
2 5 8 -14 15 -18 0
-3 -6 -11 -13 17 20 0
-2 -4 -8 13 15 -16 0
2 -6 -13 -18 -19 -20 0
4 -7 10 14 17 -20 0
1 -15 16 -17 -19 -20 0
-1 4 -6 8 11 13 0
-6 -10 -14 -17 -18 -20 0
-6 8 10 -17 -18 19 0
-2 3 -9 -16 -18 -19 0
-3 -7 -10 12 13 -18 0
-4 -6 -14 15 -19 -20 0
-5 -9 11 -12 -18 20 0
-1 4 5 6 17 -19 0
5 -6 -10 -15 -16 20 0
-1 2 -8 15 16 -18 0
3 10 -11 -17 19 -20 0
-6 -8 -12 15 -19 20 0
1 -2 7 -16 17 19 0
4 -5 13 -16 -17 -20 0
-10 13 -15 16 18 -19 0
1 -8 -15 18 19 -20 0
1 -4 5 6 -8 -14 0
2 3 -4 9 -10 13 0
-3 9 -11 13 -14 18 0
1 8 13 -14 -18 20 0
-5 7 -9 14 -19 20 0
-2 13 14 15 18 -19 0
7 8 9 11 16 17 0
-2 3 -7 -13 -17 -19 0
-3 -5 -11 13 15 19 0
4 -5 -7 -15 17 -18 0
3 5 -6 -7 -10 11 0
-1 8 11 -12 17 20 0
-2 7 -8 9 11 15 0
2 7 -10 12 -16 -20 0
-2 4 -8 -12 14 -15 0
1 4 -7 -11 14 15 0
4 5 -6 13 -14 17 0
-4 -5 10 15 16 -19 0
-1 2 4 -5 10 -19 0
3 -8 -9 12 -13 -16 0
5 -6 -7 8 -10 13 0
4 -5 6 -10 11 15 0
1 2 -3 -8 11 -14 0
-1 3 -5 6 -7 -18 0
-4 -10 12 14 -16 -17 0
4 -6 9 10 -13 18 0
-7 -9 11 -12 -13 -19 0
-2 3 8 -10 -14 -16 0
2 -4 -7 -13 16 -17 0
-5 13 -14 -15 -16 20 0
-2 3 4 8 13 -18 0
-1 -3 6 7 -8 -10 0
-5 7 16 17 18 -20 0
-2 3 -9 10 17 -18 0
3 -5 7 14 17 19 0
-2 -6 -7 -10 13 -19 0
1 -5 11 -12 -19 20 0
4 -5 8 13 16 -20 0
1 -8 9 -16 17 -18 0
-5 -7 -10 -14 16 -20 0
1 3 7 13 14 17 0
-2 7 10 -16 -17 -18 0
-1 3 -4 -10 -13 -16 0
-4 -6 -14 -15 17 -19 0
-3 4 -9 -10 15 17 0
4 5 6 9 -10 19 0
2 3 -5 -10 -11 -16 0
2 -4 -8 9 -10 16 0
2 -4 7 8 -13 -17 0
2 -13 -16 18 -19 -20 0
-10 -11 -12 -14 16 -20 0
-1 -4 -6 -14 -15 -16 0
-1 3 4 7 10 15 0
-7 12 -13 -16 18 -20 0
4 7 9 -13 -14 18 0
-2 -4 11 14 16 -19 0
2 -4 10 11 12 -20 0
3 5 8 16 19 -20 0
